(set-logic QF_LRA)
(declare-fun X0 () Real )
(declare-fun Y0 () Real )
(declare-fun X1 () Real )
(declare-fun Y1 () Real )
(declare-fun X2 () Real )
(declare-fun Y2 () Real )
(declare-fun X3 () Real )
(declare-fun Y3 () Real )
(declare-fun X4 () Real )
(declare-fun Y4 () Real )
(declare-fun X5 () Real )
(declare-fun Y5 () Real )
(declare-fun X6 () Real )
(declare-fun Y6 () Real )
(declare-fun X7 () Real )
(declare-fun Y7 () Real )
(declare-fun X8 () Real )
(declare-fun Y8 () Real )
(declare-fun X9 () Real )
(declare-fun Y9 () Real )
(declare-fun X10 () Real )
(declare-fun Y10 () Real )
(declare-fun X11 () Real )
(declare-fun Y11 () Real )
(declare-fun X12 () Real )
(declare-fun Y12 () Real )
(declare-fun X13 () Real )
(declare-fun Y13 () Real )
(declare-fun X14 () Real )
(declare-fun Y14 () Real )
(declare-fun X15 () Real )
(declare-fun Y15 () Real )
(declare-fun X16 () Real )
(declare-fun Y16 () Real )
(declare-fun X17 () Real )
(declare-fun Y17 () Real )
(declare-fun Z () Real )
(declare-fun k () Real )
(assert (let
(( $goal (>= Z k) ))
(let
((
$phi ( and 
( or ( <= ( + X0 60 ) X1 )  ( <= ( + X1 70 ) X0 )  ( <= ( + Y0 53 ) Y1 )  ( <= ( + Y1 84 ) Y0 )  )
( or ( <= ( + X0 60 ) X2 )  ( <= ( + X2 33 ) X0 )  ( <= ( + Y0 53 ) Y2 )  ( <= ( + Y2 86 ) Y0 )  )
( or ( <= ( + X0 60 ) X3 )  ( <= ( + X3 57 ) X0 )  ( <= ( + Y0 53 ) Y3 )  ( <= ( + Y3 92 ) Y0 )  )
( or ( <= ( + X0 60 ) X4 )  ( <= ( + X4 91 ) X0 )  ( <= ( + Y0 53 ) Y4 )  ( <= ( + Y4 67 ) Y0 )  )
( or ( <= ( + X0 60 ) X5 )  ( <= ( + X5 86 ) X0 )  ( <= ( + Y0 53 ) Y5 )  ( <= ( + Y5 90 ) Y0 )  )
( or ( <= ( + X0 60 ) X6 )  ( <= ( + X6 47 ) X0 )  ( <= ( + Y0 53 ) Y6 )  ( <= ( + Y6 95 ) Y0 )  )
( or ( <= ( + X0 60 ) X7 )  ( <= ( + X7 24 ) X0 )  ( <= ( + Y0 53 ) Y7 )  ( <= ( + Y7 62 ) Y0 )  )
( or ( <= ( + X0 60 ) X8 )  ( <= ( + X8 3 ) X0 )  ( <= ( + Y0 53 ) Y8 )  ( <= ( + Y8 6 ) Y0 )  )
( or ( <= ( + X0 60 ) X9 )  ( <= ( + X9 15 ) X0 )  ( <= ( + Y0 53 ) Y9 )  ( <= ( + Y9 43 ) Y0 )  )
( or ( <= ( + X0 60 ) X10 )  ( <= ( + X10 13 ) X0 )  ( <= ( + Y0 53 ) Y10 )  ( <= ( + Y10 48 ) Y0 )  )
( or ( <= ( + X0 60 ) X11 )  ( <= ( + X11 23 ) X0 )  ( <= ( + Y0 53 ) Y11 )  ( <= ( + Y11 94 ) Y0 )  )
( or ( <= ( + X0 60 ) X12 )  ( <= ( + X12 93 ) X0 )  ( <= ( + Y0 53 ) Y12 )  ( <= ( + Y12 73 ) Y0 )  )
( or ( <= ( + X0 60 ) X13 )  ( <= ( + X13 88 ) X0 )  ( <= ( + Y0 53 ) Y13 )  ( <= ( + Y13 7 ) Y0 )  )
( or ( <= ( + X0 60 ) X14 )  ( <= ( + X14 96 ) X0 )  ( <= ( + Y0 53 ) Y14 )  ( <= ( + Y14 63 ) Y0 )  )
( or ( <= ( + X0 60 ) X15 )  ( <= ( + X15 89 ) X0 )  ( <= ( + Y0 53 ) Y15 )  ( <= ( + Y15 5 ) Y0 )  )
( or ( <= ( + X0 60 ) X16 )  ( <= ( + X16 67 ) X0 )  ( <= ( + Y0 53 ) Y16 )  ( <= ( + Y16 15 ) Y0 )  )
( or ( <= ( + X0 60 ) X17 )  ( <= ( + X17 42 ) X0 )  ( <= ( + Y0 53 ) Y17 )  ( <= ( + Y17 53 ) Y0 )  )
( or ( <= ( + X1 70 ) X2 )  ( <= ( + X2 33 ) X1 )  ( <= ( + Y1 84 ) Y2 )  ( <= ( + Y2 86 ) Y1 )  )
( or ( <= ( + X1 70 ) X3 )  ( <= ( + X3 57 ) X1 )  ( <= ( + Y1 84 ) Y3 )  ( <= ( + Y3 92 ) Y1 )  )
( or ( <= ( + X1 70 ) X4 )  ( <= ( + X4 91 ) X1 )  ( <= ( + Y1 84 ) Y4 )  ( <= ( + Y4 67 ) Y1 )  )
( or ( <= ( + X1 70 ) X5 )  ( <= ( + X5 86 ) X1 )  ( <= ( + Y1 84 ) Y5 )  ( <= ( + Y5 90 ) Y1 )  )
( or ( <= ( + X1 70 ) X6 )  ( <= ( + X6 47 ) X1 )  ( <= ( + Y1 84 ) Y6 )  ( <= ( + Y6 95 ) Y1 )  )
( or ( <= ( + X1 70 ) X7 )  ( <= ( + X7 24 ) X1 )  ( <= ( + Y1 84 ) Y7 )  ( <= ( + Y7 62 ) Y1 )  )
( or ( <= ( + X1 70 ) X8 )  ( <= ( + X8 3 ) X1 )  ( <= ( + Y1 84 ) Y8 )  ( <= ( + Y8 6 ) Y1 )  )
( or ( <= ( + X1 70 ) X9 )  ( <= ( + X9 15 ) X1 )  ( <= ( + Y1 84 ) Y9 )  ( <= ( + Y9 43 ) Y1 )  )
( or ( <= ( + X1 70 ) X10 )  ( <= ( + X10 13 ) X1 )  ( <= ( + Y1 84 ) Y10 )  ( <= ( + Y10 48 ) Y1 )  )
( or ( <= ( + X1 70 ) X11 )  ( <= ( + X11 23 ) X1 )  ( <= ( + Y1 84 ) Y11 )  ( <= ( + Y11 94 ) Y1 )  )
( or ( <= ( + X1 70 ) X12 )  ( <= ( + X12 93 ) X1 )  ( <= ( + Y1 84 ) Y12 )  ( <= ( + Y12 73 ) Y1 )  )
( or ( <= ( + X1 70 ) X13 )  ( <= ( + X13 88 ) X1 )  ( <= ( + Y1 84 ) Y13 )  ( <= ( + Y13 7 ) Y1 )  )
( or ( <= ( + X1 70 ) X14 )  ( <= ( + X14 96 ) X1 )  ( <= ( + Y1 84 ) Y14 )  ( <= ( + Y14 63 ) Y1 )  )
( or ( <= ( + X1 70 ) X15 )  ( <= ( + X15 89 ) X1 )  ( <= ( + Y1 84 ) Y15 )  ( <= ( + Y15 5 ) Y1 )  )
( or ( <= ( + X1 70 ) X16 )  ( <= ( + X16 67 ) X1 )  ( <= ( + Y1 84 ) Y16 )  ( <= ( + Y16 15 ) Y1 )  )
( or ( <= ( + X1 70 ) X17 )  ( <= ( + X17 42 ) X1 )  ( <= ( + Y1 84 ) Y17 )  ( <= ( + Y17 53 ) Y1 )  )
( or ( <= ( + X2 33 ) X3 )  ( <= ( + X3 57 ) X2 )  ( <= ( + Y2 86 ) Y3 )  ( <= ( + Y3 92 ) Y2 )  )
( or ( <= ( + X2 33 ) X4 )  ( <= ( + X4 91 ) X2 )  ( <= ( + Y2 86 ) Y4 )  ( <= ( + Y4 67 ) Y2 )  )
( or ( <= ( + X2 33 ) X5 )  ( <= ( + X5 86 ) X2 )  ( <= ( + Y2 86 ) Y5 )  ( <= ( + Y5 90 ) Y2 )  )
( or ( <= ( + X2 33 ) X6 )  ( <= ( + X6 47 ) X2 )  ( <= ( + Y2 86 ) Y6 )  ( <= ( + Y6 95 ) Y2 )  )
( or ( <= ( + X2 33 ) X7 )  ( <= ( + X7 24 ) X2 )  ( <= ( + Y2 86 ) Y7 )  ( <= ( + Y7 62 ) Y2 )  )
( or ( <= ( + X2 33 ) X8 )  ( <= ( + X8 3 ) X2 )  ( <= ( + Y2 86 ) Y8 )  ( <= ( + Y8 6 ) Y2 )  )
( or ( <= ( + X2 33 ) X9 )  ( <= ( + X9 15 ) X2 )  ( <= ( + Y2 86 ) Y9 )  ( <= ( + Y9 43 ) Y2 )  )
( or ( <= ( + X2 33 ) X10 )  ( <= ( + X10 13 ) X2 )  ( <= ( + Y2 86 ) Y10 )  ( <= ( + Y10 48 ) Y2 )  )
( or ( <= ( + X2 33 ) X11 )  ( <= ( + X11 23 ) X2 )  ( <= ( + Y2 86 ) Y11 )  ( <= ( + Y11 94 ) Y2 )  )
( or ( <= ( + X2 33 ) X12 )  ( <= ( + X12 93 ) X2 )  ( <= ( + Y2 86 ) Y12 )  ( <= ( + Y12 73 ) Y2 )  )
( or ( <= ( + X2 33 ) X13 )  ( <= ( + X13 88 ) X2 )  ( <= ( + Y2 86 ) Y13 )  ( <= ( + Y13 7 ) Y2 )  )
( or ( <= ( + X2 33 ) X14 )  ( <= ( + X14 96 ) X2 )  ( <= ( + Y2 86 ) Y14 )  ( <= ( + Y14 63 ) Y2 )  )
( or ( <= ( + X2 33 ) X15 )  ( <= ( + X15 89 ) X2 )  ( <= ( + Y2 86 ) Y15 )  ( <= ( + Y15 5 ) Y2 )  )
( or ( <= ( + X2 33 ) X16 )  ( <= ( + X16 67 ) X2 )  ( <= ( + Y2 86 ) Y16 )  ( <= ( + Y16 15 ) Y2 )  )
( or ( <= ( + X2 33 ) X17 )  ( <= ( + X17 42 ) X2 )  ( <= ( + Y2 86 ) Y17 )  ( <= ( + Y17 53 ) Y2 )  )
( or ( <= ( + X3 57 ) X4 )  ( <= ( + X4 91 ) X3 )  ( <= ( + Y3 92 ) Y4 )  ( <= ( + Y4 67 ) Y3 )  )
( or ( <= ( + X3 57 ) X5 )  ( <= ( + X5 86 ) X3 )  ( <= ( + Y3 92 ) Y5 )  ( <= ( + Y5 90 ) Y3 )  )
( or ( <= ( + X3 57 ) X6 )  ( <= ( + X6 47 ) X3 )  ( <= ( + Y3 92 ) Y6 )  ( <= ( + Y6 95 ) Y3 )  )
( or ( <= ( + X3 57 ) X7 )  ( <= ( + X7 24 ) X3 )  ( <= ( + Y3 92 ) Y7 )  ( <= ( + Y7 62 ) Y3 )  )
( or ( <= ( + X3 57 ) X8 )  ( <= ( + X8 3 ) X3 )  ( <= ( + Y3 92 ) Y8 )  ( <= ( + Y8 6 ) Y3 )  )
( or ( <= ( + X3 57 ) X9 )  ( <= ( + X9 15 ) X3 )  ( <= ( + Y3 92 ) Y9 )  ( <= ( + Y9 43 ) Y3 )  )
( or ( <= ( + X3 57 ) X10 )  ( <= ( + X10 13 ) X3 )  ( <= ( + Y3 92 ) Y10 )  ( <= ( + Y10 48 ) Y3 )  )
( or ( <= ( + X3 57 ) X11 )  ( <= ( + X11 23 ) X3 )  ( <= ( + Y3 92 ) Y11 )  ( <= ( + Y11 94 ) Y3 )  )
( or ( <= ( + X3 57 ) X12 )  ( <= ( + X12 93 ) X3 )  ( <= ( + Y3 92 ) Y12 )  ( <= ( + Y12 73 ) Y3 )  )
( or ( <= ( + X3 57 ) X13 )  ( <= ( + X13 88 ) X3 )  ( <= ( + Y3 92 ) Y13 )  ( <= ( + Y13 7 ) Y3 )  )
( or ( <= ( + X3 57 ) X14 )  ( <= ( + X14 96 ) X3 )  ( <= ( + Y3 92 ) Y14 )  ( <= ( + Y14 63 ) Y3 )  )
( or ( <= ( + X3 57 ) X15 )  ( <= ( + X15 89 ) X3 )  ( <= ( + Y3 92 ) Y15 )  ( <= ( + Y15 5 ) Y3 )  )
( or ( <= ( + X3 57 ) X16 )  ( <= ( + X16 67 ) X3 )  ( <= ( + Y3 92 ) Y16 )  ( <= ( + Y16 15 ) Y3 )  )
( or ( <= ( + X3 57 ) X17 )  ( <= ( + X17 42 ) X3 )  ( <= ( + Y3 92 ) Y17 )  ( <= ( + Y17 53 ) Y3 )  )
( or ( <= ( + X4 91 ) X5 )  ( <= ( + X5 86 ) X4 )  ( <= ( + Y4 67 ) Y5 )  ( <= ( + Y5 90 ) Y4 )  )
( or ( <= ( + X4 91 ) X6 )  ( <= ( + X6 47 ) X4 )  ( <= ( + Y4 67 ) Y6 )  ( <= ( + Y6 95 ) Y4 )  )
( or ( <= ( + X4 91 ) X7 )  ( <= ( + X7 24 ) X4 )  ( <= ( + Y4 67 ) Y7 )  ( <= ( + Y7 62 ) Y4 )  )
( or ( <= ( + X4 91 ) X8 )  ( <= ( + X8 3 ) X4 )  ( <= ( + Y4 67 ) Y8 )  ( <= ( + Y8 6 ) Y4 )  )
( or ( <= ( + X4 91 ) X9 )  ( <= ( + X9 15 ) X4 )  ( <= ( + Y4 67 ) Y9 )  ( <= ( + Y9 43 ) Y4 )  )
( or ( <= ( + X4 91 ) X10 )  ( <= ( + X10 13 ) X4 )  ( <= ( + Y4 67 ) Y10 )  ( <= ( + Y10 48 ) Y4 )  )
( or ( <= ( + X4 91 ) X11 )  ( <= ( + X11 23 ) X4 )  ( <= ( + Y4 67 ) Y11 )  ( <= ( + Y11 94 ) Y4 )  )
( or ( <= ( + X4 91 ) X12 )  ( <= ( + X12 93 ) X4 )  ( <= ( + Y4 67 ) Y12 )  ( <= ( + Y12 73 ) Y4 )  )
( or ( <= ( + X4 91 ) X13 )  ( <= ( + X13 88 ) X4 )  ( <= ( + Y4 67 ) Y13 )  ( <= ( + Y13 7 ) Y4 )  )
( or ( <= ( + X4 91 ) X14 )  ( <= ( + X14 96 ) X4 )  ( <= ( + Y4 67 ) Y14 )  ( <= ( + Y14 63 ) Y4 )  )
( or ( <= ( + X4 91 ) X15 )  ( <= ( + X15 89 ) X4 )  ( <= ( + Y4 67 ) Y15 )  ( <= ( + Y15 5 ) Y4 )  )
( or ( <= ( + X4 91 ) X16 )  ( <= ( + X16 67 ) X4 )  ( <= ( + Y4 67 ) Y16 )  ( <= ( + Y16 15 ) Y4 )  )
( or ( <= ( + X4 91 ) X17 )  ( <= ( + X17 42 ) X4 )  ( <= ( + Y4 67 ) Y17 )  ( <= ( + Y17 53 ) Y4 )  )
( or ( <= ( + X5 86 ) X6 )  ( <= ( + X6 47 ) X5 )  ( <= ( + Y5 90 ) Y6 )  ( <= ( + Y6 95 ) Y5 )  )
( or ( <= ( + X5 86 ) X7 )  ( <= ( + X7 24 ) X5 )  ( <= ( + Y5 90 ) Y7 )  ( <= ( + Y7 62 ) Y5 )  )
( or ( <= ( + X5 86 ) X8 )  ( <= ( + X8 3 ) X5 )  ( <= ( + Y5 90 ) Y8 )  ( <= ( + Y8 6 ) Y5 )  )
( or ( <= ( + X5 86 ) X9 )  ( <= ( + X9 15 ) X5 )  ( <= ( + Y5 90 ) Y9 )  ( <= ( + Y9 43 ) Y5 )  )
( or ( <= ( + X5 86 ) X10 )  ( <= ( + X10 13 ) X5 )  ( <= ( + Y5 90 ) Y10 )  ( <= ( + Y10 48 ) Y5 )  )
( or ( <= ( + X5 86 ) X11 )  ( <= ( + X11 23 ) X5 )  ( <= ( + Y5 90 ) Y11 )  ( <= ( + Y11 94 ) Y5 )  )
( or ( <= ( + X5 86 ) X12 )  ( <= ( + X12 93 ) X5 )  ( <= ( + Y5 90 ) Y12 )  ( <= ( + Y12 73 ) Y5 )  )
( or ( <= ( + X5 86 ) X13 )  ( <= ( + X13 88 ) X5 )  ( <= ( + Y5 90 ) Y13 )  ( <= ( + Y13 7 ) Y5 )  )
( or ( <= ( + X5 86 ) X14 )  ( <= ( + X14 96 ) X5 )  ( <= ( + Y5 90 ) Y14 )  ( <= ( + Y14 63 ) Y5 )  )
( or ( <= ( + X5 86 ) X15 )  ( <= ( + X15 89 ) X5 )  ( <= ( + Y5 90 ) Y15 )  ( <= ( + Y15 5 ) Y5 )  )
( or ( <= ( + X5 86 ) X16 )  ( <= ( + X16 67 ) X5 )  ( <= ( + Y5 90 ) Y16 )  ( <= ( + Y16 15 ) Y5 )  )
( or ( <= ( + X5 86 ) X17 )  ( <= ( + X17 42 ) X5 )  ( <= ( + Y5 90 ) Y17 )  ( <= ( + Y17 53 ) Y5 )  )
( or ( <= ( + X6 47 ) X7 )  ( <= ( + X7 24 ) X6 )  ( <= ( + Y6 95 ) Y7 )  ( <= ( + Y7 62 ) Y6 )  )
( or ( <= ( + X6 47 ) X8 )  ( <= ( + X8 3 ) X6 )  ( <= ( + Y6 95 ) Y8 )  ( <= ( + Y8 6 ) Y6 )  )
( or ( <= ( + X6 47 ) X9 )  ( <= ( + X9 15 ) X6 )  ( <= ( + Y6 95 ) Y9 )  ( <= ( + Y9 43 ) Y6 )  )
( or ( <= ( + X6 47 ) X10 )  ( <= ( + X10 13 ) X6 )  ( <= ( + Y6 95 ) Y10 )  ( <= ( + Y10 48 ) Y6 )  )
( or ( <= ( + X6 47 ) X11 )  ( <= ( + X11 23 ) X6 )  ( <= ( + Y6 95 ) Y11 )  ( <= ( + Y11 94 ) Y6 )  )
( or ( <= ( + X6 47 ) X12 )  ( <= ( + X12 93 ) X6 )  ( <= ( + Y6 95 ) Y12 )  ( <= ( + Y12 73 ) Y6 )  )
( or ( <= ( + X6 47 ) X13 )  ( <= ( + X13 88 ) X6 )  ( <= ( + Y6 95 ) Y13 )  ( <= ( + Y13 7 ) Y6 )  )
( or ( <= ( + X6 47 ) X14 )  ( <= ( + X14 96 ) X6 )  ( <= ( + Y6 95 ) Y14 )  ( <= ( + Y14 63 ) Y6 )  )
( or ( <= ( + X6 47 ) X15 )  ( <= ( + X15 89 ) X6 )  ( <= ( + Y6 95 ) Y15 )  ( <= ( + Y15 5 ) Y6 )  )
( or ( <= ( + X6 47 ) X16 )  ( <= ( + X16 67 ) X6 )  ( <= ( + Y6 95 ) Y16 )  ( <= ( + Y16 15 ) Y6 )  )
( or ( <= ( + X6 47 ) X17 )  ( <= ( + X17 42 ) X6 )  ( <= ( + Y6 95 ) Y17 )  ( <= ( + Y17 53 ) Y6 )  )
( or ( <= ( + X7 24 ) X8 )  ( <= ( + X8 3 ) X7 )  ( <= ( + Y7 62 ) Y8 )  ( <= ( + Y8 6 ) Y7 )  )
( or ( <= ( + X7 24 ) X9 )  ( <= ( + X9 15 ) X7 )  ( <= ( + Y7 62 ) Y9 )  ( <= ( + Y9 43 ) Y7 )  )
( or ( <= ( + X7 24 ) X10 )  ( <= ( + X10 13 ) X7 )  ( <= ( + Y7 62 ) Y10 )  ( <= ( + Y10 48 ) Y7 )  )
( or ( <= ( + X7 24 ) X11 )  ( <= ( + X11 23 ) X7 )  ( <= ( + Y7 62 ) Y11 )  ( <= ( + Y11 94 ) Y7 )  )
( or ( <= ( + X7 24 ) X12 )  ( <= ( + X12 93 ) X7 )  ( <= ( + Y7 62 ) Y12 )  ( <= ( + Y12 73 ) Y7 )  )
( or ( <= ( + X7 24 ) X13 )  ( <= ( + X13 88 ) X7 )  ( <= ( + Y7 62 ) Y13 )  ( <= ( + Y13 7 ) Y7 )  )
( or ( <= ( + X7 24 ) X14 )  ( <= ( + X14 96 ) X7 )  ( <= ( + Y7 62 ) Y14 )  ( <= ( + Y14 63 ) Y7 )  )
( or ( <= ( + X7 24 ) X15 )  ( <= ( + X15 89 ) X7 )  ( <= ( + Y7 62 ) Y15 )  ( <= ( + Y15 5 ) Y7 )  )
( or ( <= ( + X7 24 ) X16 )  ( <= ( + X16 67 ) X7 )  ( <= ( + Y7 62 ) Y16 )  ( <= ( + Y16 15 ) Y7 )  )
( or ( <= ( + X7 24 ) X17 )  ( <= ( + X17 42 ) X7 )  ( <= ( + Y7 62 ) Y17 )  ( <= ( + Y17 53 ) Y7 )  )
( or ( <= ( + X8 3 ) X9 )  ( <= ( + X9 15 ) X8 )  ( <= ( + Y8 6 ) Y9 )  ( <= ( + Y9 43 ) Y8 )  )
( or ( <= ( + X8 3 ) X10 )  ( <= ( + X10 13 ) X8 )  ( <= ( + Y8 6 ) Y10 )  ( <= ( + Y10 48 ) Y8 )  )
( or ( <= ( + X8 3 ) X11 )  ( <= ( + X11 23 ) X8 )  ( <= ( + Y8 6 ) Y11 )  ( <= ( + Y11 94 ) Y8 )  )
( or ( <= ( + X8 3 ) X12 )  ( <= ( + X12 93 ) X8 )  ( <= ( + Y8 6 ) Y12 )  ( <= ( + Y12 73 ) Y8 )  )
( or ( <= ( + X8 3 ) X13 )  ( <= ( + X13 88 ) X8 )  ( <= ( + Y8 6 ) Y13 )  ( <= ( + Y13 7 ) Y8 )  )
( or ( <= ( + X8 3 ) X14 )  ( <= ( + X14 96 ) X8 )  ( <= ( + Y8 6 ) Y14 )  ( <= ( + Y14 63 ) Y8 )  )
( or ( <= ( + X8 3 ) X15 )  ( <= ( + X15 89 ) X8 )  ( <= ( + Y8 6 ) Y15 )  ( <= ( + Y15 5 ) Y8 )  )
( or ( <= ( + X8 3 ) X16 )  ( <= ( + X16 67 ) X8 )  ( <= ( + Y8 6 ) Y16 )  ( <= ( + Y16 15 ) Y8 )  )
( or ( <= ( + X8 3 ) X17 )  ( <= ( + X17 42 ) X8 )  ( <= ( + Y8 6 ) Y17 )  ( <= ( + Y17 53 ) Y8 )  )
( or ( <= ( + X9 15 ) X10 )  ( <= ( + X10 13 ) X9 )  ( <= ( + Y9 43 ) Y10 )  ( <= ( + Y10 48 ) Y9 )  )
( or ( <= ( + X9 15 ) X11 )  ( <= ( + X11 23 ) X9 )  ( <= ( + Y9 43 ) Y11 )  ( <= ( + Y11 94 ) Y9 )  )
( or ( <= ( + X9 15 ) X12 )  ( <= ( + X12 93 ) X9 )  ( <= ( + Y9 43 ) Y12 )  ( <= ( + Y12 73 ) Y9 )  )
( or ( <= ( + X9 15 ) X13 )  ( <= ( + X13 88 ) X9 )  ( <= ( + Y9 43 ) Y13 )  ( <= ( + Y13 7 ) Y9 )  )
( or ( <= ( + X9 15 ) X14 )  ( <= ( + X14 96 ) X9 )  ( <= ( + Y9 43 ) Y14 )  ( <= ( + Y14 63 ) Y9 )  )
( or ( <= ( + X9 15 ) X15 )  ( <= ( + X15 89 ) X9 )  ( <= ( + Y9 43 ) Y15 )  ( <= ( + Y15 5 ) Y9 )  )
( or ( <= ( + X9 15 ) X16 )  ( <= ( + X16 67 ) X9 )  ( <= ( + Y9 43 ) Y16 )  ( <= ( + Y16 15 ) Y9 )  )
( or ( <= ( + X9 15 ) X17 )  ( <= ( + X17 42 ) X9 )  ( <= ( + Y9 43 ) Y17 )  ( <= ( + Y17 53 ) Y9 )  )
( or ( <= ( + X10 13 ) X11 )  ( <= ( + X11 23 ) X10 )  ( <= ( + Y10 48 ) Y11 )  ( <= ( + Y11 94 ) Y10 )  )
( or ( <= ( + X10 13 ) X12 )  ( <= ( + X12 93 ) X10 )  ( <= ( + Y10 48 ) Y12 )  ( <= ( + Y12 73 ) Y10 )  )
( or ( <= ( + X10 13 ) X13 )  ( <= ( + X13 88 ) X10 )  ( <= ( + Y10 48 ) Y13 )  ( <= ( + Y13 7 ) Y10 )  )
( or ( <= ( + X10 13 ) X14 )  ( <= ( + X14 96 ) X10 )  ( <= ( + Y10 48 ) Y14 )  ( <= ( + Y14 63 ) Y10 )  )
( or ( <= ( + X10 13 ) X15 )  ( <= ( + X15 89 ) X10 )  ( <= ( + Y10 48 ) Y15 )  ( <= ( + Y15 5 ) Y10 )  )
( or ( <= ( + X10 13 ) X16 )  ( <= ( + X16 67 ) X10 )  ( <= ( + Y10 48 ) Y16 )  ( <= ( + Y16 15 ) Y10 )  )
( or ( <= ( + X10 13 ) X17 )  ( <= ( + X17 42 ) X10 )  ( <= ( + Y10 48 ) Y17 )  ( <= ( + Y17 53 ) Y10 )  )
( or ( <= ( + X11 23 ) X12 )  ( <= ( + X12 93 ) X11 )  ( <= ( + Y11 94 ) Y12 )  ( <= ( + Y12 73 ) Y11 )  )
( or ( <= ( + X11 23 ) X13 )  ( <= ( + X13 88 ) X11 )  ( <= ( + Y11 94 ) Y13 )  ( <= ( + Y13 7 ) Y11 )  )
( or ( <= ( + X11 23 ) X14 )  ( <= ( + X14 96 ) X11 )  ( <= ( + Y11 94 ) Y14 )  ( <= ( + Y14 63 ) Y11 )  )
( or ( <= ( + X11 23 ) X15 )  ( <= ( + X15 89 ) X11 )  ( <= ( + Y11 94 ) Y15 )  ( <= ( + Y15 5 ) Y11 )  )
( or ( <= ( + X11 23 ) X16 )  ( <= ( + X16 67 ) X11 )  ( <= ( + Y11 94 ) Y16 )  ( <= ( + Y16 15 ) Y11 )  )
( or ( <= ( + X11 23 ) X17 )  ( <= ( + X17 42 ) X11 )  ( <= ( + Y11 94 ) Y17 )  ( <= ( + Y17 53 ) Y11 )  )
( or ( <= ( + X12 93 ) X13 )  ( <= ( + X13 88 ) X12 )  ( <= ( + Y12 73 ) Y13 )  ( <= ( + Y13 7 ) Y12 )  )
( or ( <= ( + X12 93 ) X14 )  ( <= ( + X14 96 ) X12 )  ( <= ( + Y12 73 ) Y14 )  ( <= ( + Y14 63 ) Y12 )  )
( or ( <= ( + X12 93 ) X15 )  ( <= ( + X15 89 ) X12 )  ( <= ( + Y12 73 ) Y15 )  ( <= ( + Y15 5 ) Y12 )  )
( or ( <= ( + X12 93 ) X16 )  ( <= ( + X16 67 ) X12 )  ( <= ( + Y12 73 ) Y16 )  ( <= ( + Y16 15 ) Y12 )  )
( or ( <= ( + X12 93 ) X17 )  ( <= ( + X17 42 ) X12 )  ( <= ( + Y12 73 ) Y17 )  ( <= ( + Y17 53 ) Y12 )  )
( or ( <= ( + X13 88 ) X14 )  ( <= ( + X14 96 ) X13 )  ( <= ( + Y13 7 ) Y14 )  ( <= ( + Y14 63 ) Y13 )  )
( or ( <= ( + X13 88 ) X15 )  ( <= ( + X15 89 ) X13 )  ( <= ( + Y13 7 ) Y15 )  ( <= ( + Y15 5 ) Y13 )  )
( or ( <= ( + X13 88 ) X16 )  ( <= ( + X16 67 ) X13 )  ( <= ( + Y13 7 ) Y16 )  ( <= ( + Y16 15 ) Y13 )  )
( or ( <= ( + X13 88 ) X17 )  ( <= ( + X17 42 ) X13 )  ( <= ( + Y13 7 ) Y17 )  ( <= ( + Y17 53 ) Y13 )  )
( or ( <= ( + X14 96 ) X15 )  ( <= ( + X15 89 ) X14 )  ( <= ( + Y14 63 ) Y15 )  ( <= ( + Y15 5 ) Y14 )  )
( or ( <= ( + X14 96 ) X16 )  ( <= ( + X16 67 ) X14 )  ( <= ( + Y14 63 ) Y16 )  ( <= ( + Y16 15 ) Y14 )  )
( or ( <= ( + X14 96 ) X17 )  ( <= ( + X17 42 ) X14 )  ( <= ( + Y14 63 ) Y17 )  ( <= ( + Y17 53 ) Y14 )  )
( or ( <= ( + X15 89 ) X16 )  ( <= ( + X16 67 ) X15 )  ( <= ( + Y15 5 ) Y16 )  ( <= ( + Y16 15 ) Y15 )  )
( or ( <= ( + X15 89 ) X17 )  ( <= ( + X17 42 ) X15 )  ( <= ( + Y15 5 ) Y17 )  ( <= ( + Y17 53 ) Y15 )  )
( or ( <= ( + X16 67 ) X17 )  ( <= ( + X17 42 ) X16 )  ( <= ( + Y16 15 ) Y17 )  ( <= ( + Y17 53 ) Y16 )  )
( >= X0 0)
( <= ( + X0 60) Z)
( >= Y0 0)
( <= ( + Y0 53 ) 212)
( >= X1 0)
( <= ( + X1 70) Z)
( >= Y1 0)
( <= ( + Y1 84 ) 212)
( >= X2 0)
( <= ( + X2 33) Z)
( >= Y2 0)
( <= ( + Y2 86 ) 212)
( >= X3 0)
( <= ( + X3 57) Z)
( >= Y3 0)
( <= ( + Y3 92 ) 212)
( >= X4 0)
( <= ( + X4 91) Z)
( >= Y4 0)
( <= ( + Y4 67 ) 212)
( >= X5 0)
( <= ( + X5 86) Z)
( >= Y5 0)
( <= ( + Y5 90 ) 212)
( >= X6 0)
( <= ( + X6 47) Z)
( >= Y6 0)
( <= ( + Y6 95 ) 212)
( >= X7 0)
( <= ( + X7 24) Z)
( >= Y7 0)
( <= ( + Y7 62 ) 212)
( >= X8 0)
( <= ( + X8 3) Z)
( >= Y8 0)
( <= ( + Y8 6 ) 212)
( >= X9 0)
( <= ( + X9 15) Z)
( >= Y9 0)
( <= ( + Y9 43 ) 212)
( >= X10 0)
( <= ( + X10 13) Z)
( >= Y10 0)
( <= ( + Y10 48 ) 212)
( >= X11 0)
( <= ( + X11 23) Z)
( >= Y11 0)
( <= ( + Y11 94 ) 212)
( >= X12 0)
( <= ( + X12 93) Z)
( >= Y12 0)
( <= ( + Y12 73 ) 212)
( >= X13 0)
( <= ( + X13 88) Z)
( >= Y13 0)
( <= ( + Y13 7 ) 212)
( >= X14 0)
( <= ( + X14 96) Z)
( >= Y14 0)
( <= ( + Y14 63 ) 212)
( >= X15 0)
( <= ( + X15 89) Z)
( >= Y15 0)
( <= ( + Y15 5 ) 212)
( >= X16 0)
( <= ( + X16 67) Z)
( >= Y16 0)
( <= ( + Y16 15 ) 212)
( >= X17 0)
( <= ( + X17 42) Z)
( >= Y17 0)
( <= ( + Y17 53 ) 212)
) )
)(=> $phi $goal))))